# Data VRPwTW

set NODE := MoscowDepot Yaroslavl_LENTA1 Yaroslavl_7Continent Yaroslavl_ATAK Yaroslavl_ASHANn Yaroslavl_ASHANp Yaroslavl_LENTA
Yaroslavl_Giperglobus Yaroslavl_Magnit Kostroma_ASHAN Kostroma_7Continent MoscowDepotEND;
set VEHICLES:= 1;


param start := 'MoscowDepot';
param end := 'MoscowDepotEND';
param L:= 2;


set TIMEWINDOWS[1,1]:= 7	31	55	79	103	127	151	175	199	223	247	271	295;
set TIMEWINDOWS[1,2]:= 16	40	64	88	112	136	160	184	208	232	256	280	304;
set TIMEWINDOWS[2,1]:= 7	31	55	79	103	127	151	175	199	223	247	271	295;
set TIMEWINDOWS[2,2]:= 16	40	64	88	112	136	160	184	208	232	256	280	304;
set TIMEWINDOWS[3,1]:= 7	31	55	79	103	127	151	175	199	223	247	271	295;
set TIMEWINDOWS[3,2]:= 16	40	64	88	112	136	160	184	208	232	256	280	304;
set TIMEWINDOWS[4,1]:= 9	33	57	81	105	129	153	177	201	225	249	273	297;
set TIMEWINDOWS[4,2]:= 16	40	64	88	112	136	160	184	208	232	256	280	304;
set TIMEWINDOWS[5,1]:= 9	33	57	81	105	129	153	177	201	225	249	273	297;
set TIMEWINDOWS[5,2]:= 16	40	64	88	112	136	160	184	208	232	256	280	304;
set TIMEWINDOWS[6,1]:= 7	31	55	79	103	127	151	175	199	223	247	271	295;
set TIMEWINDOWS[6,2]:= 16	40	64	88	112	136	160	184	208	232	256	280	304;
set TIMEWINDOWS[7,1]:= 7	31	55	79	103	127	151	175	199	223	247	271	295;
set TIMEWINDOWS[7,2]:= 16	40	64	88	112	136	160	184	208	232	256	280	304;
set TIMEWINDOWS[8,1]:= 7	31	55	79	103	127	151	175	199	223	247	271	295;
set TIMEWINDOWS[8,2]:= 16	40	64	88	112	136	160	184	208	232	256	280	304;
set TIMEWINDOWS[9,1]:= 7	31	55	79	103	127	151	175	199	223	247	271	295;
set TIMEWINDOWS[9,2]:= 16	40	64	88	112	136	160	184	208	232	256	280	304;
set TIMEWINDOWS[10,1]:= 7	31	55	79	103	127	151	175	199	223	247	271	295;
set TIMEWINDOWS[10,2]:= 16	40	64	88	112	136	160	184	208	232	256	280	304;


param timewind:=
[Yaroslavl_LENTA1,*,*]:   1   2      3       4        5      6       7        8       9      10      11      12      13 :=

         1    7	 31	55	79	103	127	151	175	199	223	247	271	295
         2    16 40	64	88	112	136	160	184	208	232	256	280	304

[Yaroslavl_7Continent,*,*]:   1   2      3       4        5      6       7        8       9      10      11      12      13 :=

         1    7	 31	55	79	103	127	151	175	199	223	247	271	295
         2    16 40	64	88	112	136	160	184	208	232	256	280	304

[Yaroslavl_ATAK,*,*]:   1   2      3       4        5      6       7        8       9      10      11      12      13 :=

         1    7	 31	55	79	103	127	151	175	199	223	247	271	295
         2    16 40	64	88	112	136	160	184	208	232	256	280	304


[Yaroslavl_ASHANn,*,*]:   1   2      3       4        5      6       7        8       9      10      11      12      13 :=

         1    7	 31	55	79	103	127	151	175	199	223	247	271	295
         2    16 40	64	88	112	136	160	184	208	232	256	280	304

[Yaroslavl_ASHANp,*,*]:   1   2      3       4        5      6       7        8       9      10      11      12      13 :=

         1    7	 31	55	79	103	127	151	175	199	223	247	271	295
         2    16 40	64	88	112	136	160	184	208	232	256	280	304


[Yaroslavl_LENTA,*,*]:   1   2      3       4        5      6       7        8       9      10      11      12      13 :=

         1    7	 31	55	79	103	127	151	175	199	223	247	271	295
         2    16 40	64	88	112	136	160	184	208	232	256	280	304

[Yaroslavl_Giperglobus,*,*]:   1   2      3       4        5      6       7        8       9      10      11      12      13 :=

         1    7	 31	55	79	103	127	151	175	199	223	247	271	295
         2    16 40	64	88	112	136	160	184	208	232	256	280	304

[Yaroslavl_Magnit,*,*]:   1   2      3       4        5      6       7        8       9      10      11      12      13 :=

         1    7	 31	55	79	103	127	151	175	199	223	247	271	295
         2    16 40	64	88	112	136	160	184	208	232	256	280	304


[Kostroma_ASHAN,*,*]:   1   2      3       4        5      6       7        8       9      10      11      12      13 :=

         1    7	 31	55	79	103	127	151	175	199	223	247	271	295
         2    16 40	64	88	112	136	160	184	208	232	256	280	304


[Kostroma_7Continent,*,*]:   1   2      3       4        5      6       7        8       9      10      11      12      13 :=

         1    7	 31	55	79	103	127	151	175	199	223	247	271	295
         2    16 40	64	88	112	136	160	184	208	232	256	280	304;


set CUSTTIMEWINDOWS[Yaroslavl_LENTA1]:=         1	2	3	4	5	6	7	8	9	10	11	12	13;
set CUSTTIMEWINDOWS[Yaroslavl_7Continent]:=     1	2	3	4	5	6	7	8	9	10	11	12	13;
set CUSTTIMEWINDOWS[Yaroslavl_ATAK]:=           1	2	3	4	5	6	7	8	9	10	11	12	13;
set CUSTTIMEWINDOWS[Yaroslavl_ASHANn]:=         1	2	3	4	5	6	7	8	9	10	11	12	13;
set CUSTTIMEWINDOWS[Yaroslavl_ASHANp]:=         1	2	3	4	5	6	7	8	9	10	11	12	13;
set CUSTTIMEWINDOWS[Yaroslavl_LENTA]:=          1	2	3	4	5	6	7	8	9	10	11	12	13;
set CUSTTIMEWINDOWS[Yaroslavl_Giperglobus]:=    1	2	3	4	5	6	7	8	9	10	11	12	13;
set CUSTTIMEWINDOWS[Yaroslavl_Magnit]:=         1	2	3	4	5	6	7	8	9	10	11	12	13;
set CUSTTIMEWINDOWS[Kostroma_ASHAN]:=           1	2	3	4	5	6	7	8	9	10	11	12	13;
set CUSTTIMEWINDOWS[Kostroma_7Continent]:=      1	2	3	4	5	6	7	8	9	10	11	12	13;


param numbTWfC:= Yaroslavl_LENTA1 13 Yaroslavl_7Continent 13 Yaroslavl_ATAK 13 Yaroslavl_ASHANn 13 Yaroslavl_ASHANp 13 Yaroslavl_LENTA 13
Yaroslavl_Giperglobus 13 Yaroslavl_Magnit 13 Kostroma_ASHAN 13 Kostroma_7Continent 13;

param maxduration:=
1 100;

param capacity :=
1 20000;


param travel_time:
	 Yaroslavl_LENTA1 Yaroslavl_7Continent Yaroslavl_ATAK Yaroslavl_ASHANn Yaroslavl_ASHANp Yaroslavl_LENTA Yaroslavl_Giperglobus Yaroslavl_Magnit Kostroma_ASHAN Kostroma_7Continent MoscowDepotEND:=
MoscowDepot		3.63	3.32	3.5	3.33	3.55	3.63	3.73	3.5	4.34	4.22	10000
Yaroslavl_LENTA1	.	0.27	0.33	0.29	0.07	3.63	0.2	0.33	1.31	1.2	3.68
Yaroslavl_7Continent	0.32	.	0.19	0.04	0.24	0.32	0.42	0.2	1.11	0.99	3.43
Yaroslavl_ATAK		0.35	0.19	.	0.21	0.26	0.35	0.44	0.07	1.05	0.93	3.61
Yaroslavl_ASHANn	0.34	0.04	0.21	.	0.26	0.34	0.44	0.22	1.08	0.97	3.44
Yaroslavl_ASHANp	0.08	0.22	0.28	0.24	.	0.08	0.26	0.28	1.26	1.15	3.64
Yaroslavl_LENTA		0.23	0.27	0.33	0.29	0.07	.	0.33	0.33	1.31	1.2	3.68
Yaroslavl_Giperglobus	0.32	0.41	0.47	0.43	0.26	0.32	.	0.47	1.45	1.34	3.83
Yaroslavl_Magnit	0.37	0.21	0.08	0.23	0.28	0.37	0.46	.	1.02	0.9	3.63
Kostroma_ASHAN		1.35	1.11	1.06	1.09	1.26	1.35	1.45	1.03	.	0.13	4.48
Kostroma_7Continent	1.22	0.99	0.93	0.97	1.14	1.22	1.32	0.9	0.12	.	4.35;


param:			demand	service_time 	start_available	end_available:=
MoscowDepot		0	0		0			3
Yaroslavl_LENTA1	857	0.2		0			3
Yaroslavl_7Continent	59	0.2		0			3
Yaroslavl_ATAK          32	0.2		0			3
Yaroslavl_ASHANn	197	0.2		0			3
Yaroslavl_ASHANp	112	0.2		0			3
Yaroslavl_LENTA		133	0.2		0			3
Yaroslavl_Giperglobus	1600	0.2		0			3
Yaroslavl_Magnit	2240	0.2		0			3
Kostroma_ASHAN		510	0.2		0			3
Kostroma_7Continent	78	0.2		0			3
MoscowDepotEND 		0	0		0			3;


param:		start_twindow	end_twindow:=
MoscowDepot		0               24
Yaroslavl_LENTA1	7               16
Yaroslavl_7Continent	7               16
Yaroslavl_ATAK		7		16
Yaroslavl_ASHANn	9               16
Yaroslavl_ASHANp	9               16
Yaroslavl_LENTA		7               16
Yaroslavl_Giperglobus	7               16
Yaroslavl_Magnit	7               16
Kostroma_ASHAN		7               16
Kostroma_7Continent	7               16
MoscowDepotEND		0               24;
